% File represents an instance of a Composite Structure problem to be solved by a CP framework
% Created on 2025-03-25 14:05:14.161
T = 60;
n = 9;
m = 12;
edges = [(1, 2),
(4, 5),
(8, 7),
(2, 3),
(5, 6),
(8, 9),
(4, 1),
(7, 4),
(2, 5),
(8, 5),
(3, 6),
(6, 9)];
counts = [|4, 4, 22, 27,
|4, 4, 22, 26,
|4, 4, 22, 25,
|4, 4, 22, 28,
|4, 4, 22, 25,
|4, 4, 21, 25,
|5, 4, 22, 28,
|5, 4, 22, 29,
|4, 4, 21, 23|];
